
Gurobi 11.0.3 (linux64) logging started Sun Nov 24 09:45:33 2024

Set parameter LogFile to value "/home/yihong/Coding/OR_SUC/SUC_results_bigM100000_thread4/case24_ieee_rts_theta0.5_epsilon0.025_gurobi_seed1210000_num_gen100_N_WDR100_load_scaling_factor1_proposed_T24quadra_cost.txt"
Set parameter TimeLimit to value 3600
Gurobi Optimizer version 11.0.3 build v11.0.3rc0 (linux64 - "Ubuntu 20.04.6 LTS")

CPU model: AMD EPYC 7532 32-Core Processor, instruction set [SSE2|AVX|AVX2]
Thread count: 64 physical cores, 128 logical processors, using up to 4 threads

Optimize a model with 51942 rows, 29861 columns and 708794 nonzeros
Model fingerprint: 0x48d10b46
Model has 2400 quadratic constraints
Variable types: 27461 continuous, 2400 integer (2400 binary)
Coefficient statistics:
  Matrix range     [3e-04, 2e+03]
  QMatrix range    [2e-03, 8e-03]
  QLMatrix range   [4e-02, 6e+01]
  Objective range  [1e+00, 1e+00]
  Bounds range     [1e+00, 1e+00]
  RHS range        [1e+00, 9e+03]
Presolve removed 42110 rows and 12926 columns
Presolve time: 0.25s
Presolved: 9832 rows, 16935 columns, 61698 nonzeros
Presolved model has 2400 quadratic constraint(s)
Variable types: 14535 continuous, 2400 integer (2400 binary)

Root relaxation: objective 7.609527e+04, 8092 iterations, 0.20 seconds (0.30 work units)

    Nodes    |    Current Node    |     Objective Bounds      |     Work
 Expl Unexpl |  Obj  Depth IntInf | Incumbent    BestBd   Gap | It/Node Time

     0     0 76095.2719    0    -          - 76095.2719      -     -    0s
     0     0 445454.806    0  601          - 445454.806      -     -    1s
     0     0 670940.587    0  615          - 670940.587      -     -    1s
     0     0 670967.530    0  307          - 670967.530      -     -    1s
     0     0 671135.866    0  150          - 671135.866      -     -    1s
     0     0 671141.921    0  150          - 671141.921      -     -    1s
     0     0 671141.921    0  174          - 671141.921      -     -    1s
     0     0 671141.921    0  174          - 671141.921      -     -    1s
     0     2 671141.921    0  174          - 671141.921      -     -    2s
   176   208 671445.686   31   84          - 671150.930      -  53.0    5s
H  437   554                    676216.31606 671152.512  0.75%  36.5    6s
*  437   554             141    676216.31606 671152.512  0.75%  36.5    6s
H  709   632                    676216.31251 671152.512  0.75%  28.6   11s
   728   648 671185.919   14   55 676216.313 671156.341  0.75%  49.7   15s
  1069   992 671321.773   66   17 676216.313 671172.547  0.75%  71.8   20s
H 1442   957                    671665.91354 671186.748  0.07%  74.2   23s
* 1442   957              96    671665.91354 671186.748  0.07%  74.3   23s

Cutting planes:
  Gomory: 15
  Implied bound: 52
  MIR: 37
  Flow cover: 28
  RLT: 71

Explored 1480 nodes (130081 simplex iterations) in 23.95 seconds (34.61 work units)
Thread count was 4 (of 128 available processors)

Solution count 3: 671666 671666 676216 

Optimal solution found (tolerance 1.00e-03)
Warning: max constraint violation (1.3618e-04) exceeds tolerance
         (model may be infeasible or unbounded - try turning presolve off)
Best objective 6.716659130440e+05, best bound 6.711867484172e+05, gap 0.0713%
